Minimize
  - 33 y_0 - 32 y_1 - 28 y_2 - 41 y_3 - 60 y_4 - 23 y_6 - 38 y_7 - 30 y_8
   - 28 y_9 - 49 y_10 - 50 y_11 - 20 y_12 - 44 y_13 - 47 y_14 - 43 y_15
   - 54 y_16 - 40 y_17 - 44 y_18 - 39 y_19 - 44 y_20 - 33 y_21 - 25 y_22
   - 24 y_23 - 13 y_24 - 48 y_25 - 47 y_26 - 29 y_27 - 32 y_28 - 37 y_29
   - 50 y_30 - 31 y_31 - 36 y_32 - 18 y_33 - 45 y_34 - 49 y_35 - 49 y_36
   - 25 y_37 - 33 y_38 - 16 y_39 - 23 y_40 - 56 y_41 - 34 y_42 - 39 y_43
   - 26 y_44 - 31 y_45 - 31 y_46 - 19 y_47 - 14 y_48 - 61 y_49 - 6 y_50
   - 37 y_51 - 32 y_52 - 50 y_53 - 24 y_54 - 42 y_55 - 59 y_56 - 38 y_57
   - 35 y_58 - 11 y_59 - 50 y_60 - 51 y_61 - 15 y_62 - 37 y_63 - 48 y_64
   - 49 y_65 - 27 y_66 - 35 y_67 - 38 y_68 - 27 y_69 - 29 y_70 - 59 y_71
   - 38 y_72 - 20 y_73 - 30 y_74 - 52 y_75 - 49 y_76 - 8 y_77 - 44 y_78
   - 42 y_79 - 34 y_80 - 62 y_81 - 28 y_82 - 52 y_83 - 50 y_84 - 35 y_85
   - 36 y_86 - 12 y_87 - 24 y_88 - 35 y_89 - 34 y_90 - 30 y_91 - 8 y_92
   - 36 y_93 - 28 y_94 - 31 y_95 - 43 y_96 - 54 y_97 - 52 y_98 - 49 y_99
   + 3576 Constant
Subject To
 c_0: y_88 = 1
 c_1_0: y_0 + y_21 + y_46 + y_58 >= 1
 c_1_1: y_1 + y_31 + y_80 >= 1
 c_1_2: y_2 + y_44 >= 1
 c_1_3: y_3 >= 1
 c_1_4: y_4 + y_81 >= 1
 c_1_5: y_5 >= 1
 c_1_6: y_6 >= 1
 c_1_7: y_7 + y_19 + y_63 + y_86 >= 1
 c_1_8: y_8 + y_45 + y_95 >= 1
 c_1_9: y_9 >= 1
 c_1_10: y_10 + y_53 + y_64 >= 1
 c_1_11: y_11 + y_30 >= 1
 c_1_12: y_12 >= 1
 c_1_13: y_13 + y_18 >= 1
 c_1_14: y_14 >= 1
 c_1_15: y_15 >= 1
 c_1_16: y_16 >= 1
 c_1_17: y_17 >= 1
 c_1_18: y_13 + y_18 >= 1
 c_1_19: y_7 + y_19 + y_63 >= 1
 c_1_20: y_20 >= 1
 c_1_21: y_0 + y_21 >= 1
 c_1_22: y_22 + y_54 >= 1
 c_1_23: y_23 >= 1
 c_1_24: y_24 >= 1
 c_1_25: y_25 + y_35 + y_60 >= 1
 c_1_26: y_26 + y_30 >= 1
 c_1_27: y_27 + y_94 >= 1
 c_1_28: y_28 >= 1
 c_1_29: y_29 + y_85 >= 1
 c_1_30: y_11 + y_26 + y_30 >= 1
 c_1_31: y_1 + y_31 >= 1
 c_1_32: y_32 + y_57 >= 1
 c_1_33: y_33 >= 1
 c_1_34: y_34 >= 1
 c_1_35: y_25 + y_35 + y_60 + y_61 >= 1
 c_1_36: y_36 + y_84 >= 1
 c_1_37: y_37 + y_44 >= 1
 c_1_38: y_38 + y_42 >= 1
 c_1_39: y_39 >= 1
 c_1_40: y_40 >= 1
 c_1_41: y_41 + y_97 >= 1
 c_1_42: y_38 + y_42 + y_85 >= 1
 c_1_43: y_43 + y_57 >= 1
 c_1_44: y_2 + y_37 + y_44 >= 1
 c_1_45: y_8 + y_45 + y_95 >= 1
 c_1_46: y_0 + y_46 + y_52 >= 1
 c_1_47: y_47 >= 1
 c_1_48: y_48 >= 1
 c_1_49: y_49 + y_56 >= 1
 c_1_50: y_50 + y_92 >= 1
 c_1_51: y_51 >= 1
 c_1_52: y_46 + y_52 >= 1
 c_1_53: y_10 + y_53 + y_64 >= 1
 c_1_54: y_22 + y_54 >= 1
 c_1_55: y_55 + y_79 >= 1
 c_1_56: y_49 + y_56 >= 1
 c_1_57: y_32 + y_43 + y_57 >= 1
 c_1_58: y_0 + y_58 + y_72 >= 1
 c_1_59: y_59 + y_87 >= 1
 c_1_60: y_25 + y_35 + y_60 + y_61 + y_83 >= 1
 c_1_61: y_35 + y_60 + y_61 >= 1
 c_1_62: y_62 >= 1
 c_1_63: y_7 + y_19 + y_63 + y_86 >= 1
 c_1_64: y_10 + y_53 + y_64 >= 1
 c_1_65: y_65 + y_76 >= 1
 c_1_66: y_66 + y_69 >= 1
 c_1_67: y_67 + y_93 >= 1
 c_1_68: y_68 >= 1
 c_1_69: y_66 + y_69 >= 1
 c_1_70: y_70 >= 1
 c_1_71: y_71 >= 1
 c_1_72: y_58 + y_72 >= 1
 c_1_73: y_73 >= 1
 c_1_74: y_74 >= 1
 c_1_75: y_75 >= 1
 c_1_76: y_65 + y_76 >= 1
 c_1_77: y_77 >= 1
 c_1_78: y_78 >= 1
 c_1_79: y_55 + y_79 >= 1
 c_1_80: y_1 + y_80 + y_89 >= 1
 c_1_81: y_4 + y_81 >= 1
 c_1_82: y_82 + y_91 >= 1
 c_1_83: y_60 + y_83 >= 1
 c_1_84: y_36 + y_84 >= 1
 c_1_85: y_29 + y_42 + y_85 >= 1
 c_1_86: y_7 + y_63 + y_86 >= 1
 c_1_87: y_59 + y_87 >= 1
 c_1_88: y_88 >= 1
 c_1_89: y_80 + y_89 >= 1
 c_1_90: y_90 >= 1
 c_1_91: y_82 + y_91 >= 1
 c_1_92: y_50 + y_92 >= 1
 c_1_93: y_67 + y_93 >= 1
 c_1_94: y_27 + y_94 >= 1
 c_1_95: y_8 + y_45 + y_95 >= 1
 c_1_96: y_96 >= 1
 c_1_97: y_41 + y_97 >= 1
 c_1_98: y_98 >= 1
 c_1_99: y_99 >= 1
Bounds
 Constant = 1
Binaries
 y_0 y_1 y_2 y_3 y_4 y_5 y_6 y_7 y_8 y_9 y_10 y_11 y_12 y_13 y_14 y_15 y_16
 y_17 y_18 y_19 y_20 y_21 y_22 y_23 y_24 y_25 y_26 y_27 y_28 y_29 y_30 y_31
 y_32 y_33 y_34 y_35 y_36 y_37 y_38 y_39 y_40 y_41 y_42 y_43 y_44 y_45 y_46
 y_47 y_48 y_49 y_50 y_51 y_52 y_53 y_54 y_55 y_56 y_57 y_58 y_59 y_60 y_61
 y_62 y_63 y_64 y_65 y_66 y_67 y_68 y_69 y_70 y_71 y_72 y_73 y_74 y_75 y_76
 y_77 y_78 y_79 y_80 y_81 y_82 y_83 y_84 y_85 y_86 y_87 y_88 y_89 y_90 y_91
 y_92 y_93 y_94 y_95 y_96 y_97 y_98 y_99
End
